82159.0
1728
0 2 3 4 5 6 9 10 13 14 17 18 19 20 21 22 26 27 28 30 32 33 35 37 38 39 42 43 44 46 47 48 49 50 52 54 55 56 57 58 60 61 63 64 65 67 68 69 70 72 74 75 76 80 81 82 84 85 89 90 91 92 93 95 96 97 98 99 